49 21
30 15
2 25
7 35
42 17
14 6
50 32
33 5
50 25
32 22
28 7
9 6
48 50
11 38
41 1
42 38
21 25
24 33
20 30
39 3
11 38
31 42
41 25
40 3
44 25
9 25
2 10
45 11
42 16
13 50
37 23
27 0
19 38
26 47
27 5
9 38
48 46
21 20
42 21
0 36
41 8
35 4
40 3
19 10
46 9
34 31
33 48
21 6
40 25
46 7
6 9
26 34
38 41
14 29
50 50
30 12
41 19
31 49
7 47
6 12
44 12
5 25
41 44
42 21
38 47
47 18
28 15
17 36
16 33
23 28
14 38
15 4
1 16
36 0
10 16
22 14
8 9
24 38
33 34
1 42
0 43
23 29
18 48
31 1
14 1
37 22
33 35
17 0
1 6
30 35
23 46
10 34
12 33
36 25
26 17
43 38
14 20
36 23
6 50
29 39
